40
1 0 9
2 0 2
2 1 10
3 0 8
3 1 3
3 2 2
4 0 1
4 1 5
4 2 6
4 3 7
5 0 4
5 1 10
5 2 7
5 3 7
5 4 10
6 0 2
6 1 8
6 2 2
6 3 2
6 4 4
6 5 10
7 0 8
7 1 6
7 2 6
7 3 6
7 4 9
7 5 3
7 6 3
8 0 7
8 1 6
8 2 9
8 3 1
8 4 2
8 5 7
8 6 5
8 7 4
9 0 5
9 1 4
9 2 2
9 3 2
9 4 8
9 5 8
9 6 1
9 7 9
9 8 1
10 0 1
10 1 8
10 2 4
10 3 10
10 4 6
10 5 2
10 6 6
10 7 6
10 8 4
10 9 4
11 0 4
11 1 10
11 2 5
11 3 8
11 4 2
11 5 1
11 6 7
11 7 3
11 8 2
11 9 10
11 10 2
12 0 4
12 1 1
12 2 2
12 3 10
12 4 3
12 5 5
12 6 2
12 7 7
12 8 10
12 9 8
12 10 3
12 11 6
13 0 8
13 1 3
13 2 6
13 3 9
13 4 7
13 5 2
13 6 6
13 7 2
13 8 5
13 9 9
13 10 8
13 11 2
13 12 1
14 0 2
14 1 8
14 2 1
14 3 2
14 4 7
14 5 7
14 6 6
14 7 5
14 8 8
14 9 2
14 10 7
14 11 6
14 12 4
14 13 5
15 0 8
15 1 9
15 2 7
15 3 1
15 4 4
15 5 7
15 6 5
15 7 3
15 8 10
15 9 1
15 10 2
15 11 8
15 12 5
15 13 7
15 14 8
16 0 4
16 1 6
16 2 1
16 3 6
16 4 4
16 5 3
16 6 10
16 7 2
16 8 5
16 9 7
16 10 3
16 11 1
16 12 8
16 13 10
16 14 1
16 15 1
17 0 3
17 1 5
17 2 6
17 3 1
17 4 4
17 5 9
17 6 3
17 7 5
17 8 7
17 9 3
17 10 1
17 11 10
17 12 6
17 13 6
17 14 10
17 15 8
17 16 9
18 0 4
18 1 4
18 2 4
18 3 8
18 4 5
18 5 4
18 6 2
18 7 8
18 8 4
18 9 1
18 10 7
18 11 6
18 12 3
18 13 2
18 14 2
18 15 10
18 16 10
18 17 9
19 0 2
19 1 5
19 2 9
19 3 9
19 4 1
19 5 5
19 6 2
19 7 3
19 8 8
19 9 10
19 10 2
19 11 7
19 12 7
19 13 2
19 14 10
19 15 3
19 16 7
19 17 4
19 18 10
20 0 7
20 1 8
20 2 9
20 3 8
20 4 8
20 5 3
20 6 4
20 7 10
20 8 7
20 9 8
20 10 2
20 11 2
20 12 1
20 13 4
20 14 10
20 15 6
20 16 10
20 17 9
20 18 7
20 19 5
21 0 10
21 1 5
21 2 9
21 3 3
21 4 8
21 5 7
21 6 5
21 7 8
21 8 3
21 9 3
21 10 1
21 11 8
21 12 5
21 13 3
21 14 7
21 15 7
21 16 1
21 17 4
21 18 4
21 19 1
21 20 1
22 0 7
22 1 1
22 2 7
22 3 2
22 4 7
22 5 6
22 6 1
22 7 1
22 8 9
22 9 8
22 10 9
22 11 7
22 12 2
22 13 10
22 14 6
22 15 8
22 16 6
22 17 1
22 18 4
22 19 4
22 20 4
22 21 7
23 0 2
23 1 3
23 2 8
23 3 6
23 4 2
23 5 3
23 6 5
23 7 2
23 8 6
23 9 6
23 10 3
23 11 9
23 12 3
23 13 5
23 14 3
23 15 3
23 16 1
23 17 2
23 18 8
23 19 8
23 20 7
23 21 10
23 22 10
24 0 3
24 1 6
24 2 2
24 3 6
24 4 6
24 5 7
24 6 4
24 7 5
24 8 7
24 9 10
24 10 4
24 11 2
24 12 7
24 13 3
24 14 6
24 15 1
24 16 2
24 17 4
24 18 5
24 19 2
24 20 6
24 21 8
24 22 3
24 23 3
25 0 5
25 1 6
25 2 5
25 3 6
25 4 7
25 5 7
25 6 10
25 7 6
25 8 8
25 9 4
25 10 3
25 11 8
25 12 3
25 13 2
25 14 3
25 15 5
25 16 8
25 17 3
25 18 3
25 19 4
25 20 7
25 21 9
25 22 7
25 23 6
25 24 7
26 0 10
26 1 8
26 2 9
26 3 4
26 4 3
26 5 8
26 6 6
26 7 4
26 8 4
26 9 1
26 10 3
26 11 9
26 12 6
26 13 2
26 14 10
26 15 3
26 16 7
26 17 7
26 18 4
26 19 2
26 20 1
26 21 7
26 22 1
26 23 8
26 24 7
26 25 4
27 0 3
27 1 6
27 2 9
27 3 9
27 4 1
27 5 10
27 6 9
27 7 1
27 8 5
27 9 9
27 10 7
27 11 4
27 12 9
27 13 9
27 14 10
27 15 6
27 16 8
27 17 5
27 18 7
27 19 7
27 20 9
27 21 8
27 22 8
27 23 3
27 24 4
27 25 10
27 26 10
28 0 6
28 1 9
28 2 2
28 3 2
28 4 8
28 5 2
28 6 3
28 7 6
28 8 4
28 9 8
28 10 3
28 11 5
28 12 2
28 13 2
28 14 8
28 15 9
28 16 9
28 17 4
28 18 10
28 19 8
28 20 8
28 21 1
28 22 2
28 23 6
28 24 5
28 25 6
28 26 4
28 27 9
29 0 5
29 1 3
29 2 5
29 3 10
29 4 4
29 5 10
29 6 5
29 7 10
29 8 8
29 9 7
29 10 1
29 11 3
29 12 1
29 13 9
29 14 5
29 15 5
29 16 5
29 17 10
29 18 8
29 19 3
29 20 2
29 21 2
29 22 5
29 23 5
29 24 2
29 25 5
29 26 7
29 27 10
29 28 6
30 0 9
30 1 7
30 2 5
30 3 2
30 4 9
30 5 7
30 6 9
30 7 9
30 8 3
30 9 4
30 10 9
30 11 6
30 12 10
30 13 8
30 14 2
30 15 10
30 16 1
30 17 8
30 18 8
30 19 2
30 20 4
30 21 9
30 22 8
30 23 1
30 24 1
30 25 8
30 26 1
30 27 1
30 28 4
30 29 6
31 0 1
31 1 3
31 2 2
31 3 8
31 4 8
31 5 2
31 6 7
31 7 8
31 8 10
31 9 8
31 10 3
31 11 1
31 12 9
31 13 1
31 14 2
31 15 7
31 16 10
31 17 4
31 18 2
31 19 9
31 20 2
31 21 1
31 22 3
31 23 4
31 24 5
31 25 10
31 26 4
31 27 5
31 28 7
31 29 6
31 30 3
32 0 7
32 1 2
32 2 8
32 3 3
32 4 5
32 5 9
32 6 2
32 7 7
32 8 7
32 9 10
32 10 4
32 11 6
32 12 9
32 13 3
32 14 1
32 15 1
32 16 10
32 17 4
32 18 9
32 19 10
32 20 5
32 21 8
32 22 2
32 23 10
32 24 4
32 25 7
32 26 3
32 27 4
32 28 8
32 29 4
32 30 9
32 31 10
33 0 2
33 1 9
33 2 10
33 3 6
33 4 5
33 5 8
33 6 10
33 7 1
33 8 7
33 9 1
33 10 1
33 11 8
33 12 3
33 13 8
33 14 7
33 15 5
33 16 7
33 17 8
33 18 7
33 19 7
33 20 2
33 21 7
33 22 8
33 23 5
33 24 3
33 25 4
33 26 5
33 27 8
33 28 7
33 29 6
33 30 4
33 31 4
33 32 9
34 0 9
34 1 4
34 2 9
34 3 7
34 4 7
34 5 6
34 6 9
34 7 10
34 8 2
34 9 5
34 10 8
34 11 1
34 12 7
34 13 2
34 14 8
34 15 9
34 16 1
34 17 6
34 18 8
34 19 6
34 20 9
34 21 2
34 22 1
34 23 9
34 24 7
34 25 1
34 26 1
34 27 1
34 28 2
34 29 9
34 30 3
34 31 1
34 32 7
34 33 3
35 0 8
35 1 7
35 2 2
35 3 5
35 4 5
35 5 7
35 6 4
35 7 2
35 8 8
35 9 5
35 10 10
35 11 4
35 12 3
35 13 1
35 14 3
35 15 2
35 16 5
35 17 6
35 18 7
35 19 4
35 20 5
35 21 5
35 22 9
35 23 3
35 24 3
35 25 9
35 26 6
35 27 6
35 28 7
35 29 9
35 30 1
35 31 7
35 32 8
35 33 9
35 34 3
36 0 7
36 1 3
36 2 2
36 3 4
36 4 7
36 5 6
36 6 4
36 7 6
36 8 6
36 9 1
36 10 9
36 11 10
36 12 3
36 13 4
36 14 5
36 15 4
36 16 1
36 17 10
36 18 1
36 19 7
36 20 5
36 21 4
36 22 2
36 23 7
36 24 6
36 25 1
36 26 6
36 27 9
36 28 10
36 29 5
36 30 9
36 31 7
36 32 9
36 33 7
36 34 8
36 35 5
37 0 8
37 1 9
37 2 3
37 3 4
37 4 9
37 5 8
37 6 6
37 7 1
37 8 6
37 9 5
37 10 3
37 11 2
37 12 6
37 13 1
37 14 4
37 15 4
37 16 10
37 17 5
37 18 5
37 19 6
37 20 6
37 21 4
37 22 2
37 23 9
37 24 5
37 25 8
37 26 3
37 27 8
37 28 7
37 29 3
37 30 6
37 31 1
37 32 1
37 33 10
37 34 10
37 35 5
37 36 4
38 0 10
38 1 3
38 2 9
38 3 3
38 4 3
38 5 5
38 6 5
38 7 2
38 8 9
38 9 3
38 10 10
38 11 10
38 12 8
38 13 7
38 14 1
38 15 4
38 16 1
38 17 5
38 18 7
38 19 1
38 20 6
38 21 9
38 22 9
38 23 8
38 24 10
38 25 9
38 26 5
38 27 3
38 28 5
38 29 10
38 30 5
38 31 2
38 32 3
38 33 9
38 34 9
38 35 9
38 36 9
38 37 7
39 0 7
39 1 5
39 2 9
39 3 8
39 4 2
39 5 5
39 6 9
39 7 6
39 8 6
39 9 10
39 10 7
39 11 4
39 12 6
39 13 2
39 14 8
39 15 2
39 16 4
39 17 9
39 18 2
39 19 1
39 20 10
39 21 10
39 22 9
39 23 4
39 24 3
39 25 6
39 26 2
39 27 2
39 28 3
39 29 8
39 30 5
39 31 4
39 32 9
39 33 1
39 34 9
39 35 10
39 36 8
39 37 8
39 38 9
